Geographic Exponential Decay
20 6 279 31 181 129 18 250 27 251 43 50 207 247 304 148 65 205 312 134 227
p edge 320 321
e 0 58 1.0
e 1 37 1.0
e 1 0 1.0
e 2 34 10.0
e 2 1 1.0
e 3 116 2.0
e 3 2 1.0
e 4 211 1.0
e 4 3 1.0
e 5 30 4.0
e 5 4 2.0
e 6 258 70.0
e 6 300 35.0
e 6 198 50.0
e 6 7 67.0
e 6 56 55.0
e 6 5 72.0
e 8 81 9.0
e 8 6 75.0
e 9 72 1.0
e 9 8 8.0
e 10 267 2.0
e 10 9 1.0
e 11 314 1.0
e 11 10 3.0
e 12 147 11.0
e 12 11 2.0
e 13 99 46.0
e 13 12 1.0
e 14 15 6.0
e 14 13 3.0
e 15 92 1.0
e 16 74 1.0
e 16 14 3.0
e 17 169 1.0
e 17 16 1.0
e 18 239 74.0
e 18 281 30.0
e 18 36 99.0
e 18 212 51.0
e 18 29 39.0
e 18 17 50.0
e 19 126 1.0
e 19 18 79.0
e 20 68 11.0
e 20 19 1.0
e 21 35 3.0
e 21 20 4.0
e 22 316 6.0
e 22 21 6.0
e 23 274 1.0
e 23 22 1.0
e 24 112 2.0
e 24 23 1.0
e 25 199 8.0
e 25 24 3.0
e 26 285 1.0
e 26 25 5.0
e 27 124 44.0
e 27 33 41.0
e 27 246 31.0
e 27 244 9.0
e 27 306 28.0
e 27 26 45.0
e 28 44 2.0
e 28 27 87.0
e 31 51 55.0
e 31 228 29.0
e 31 310 8.0
e 31 190 14.0
e 31 306 51.0
e 32 132 5.0
e 32 28 4.0
e 33 186 4.0
e 38 39 8.0
e 38 32 1.0
e 40 109 4.0
e 40 38 5.0
e 41 42 1.0
e 41 40 9.0
e 43 163 79.0
e 43 206 95.0
e 43 135 81.0
e 43 114 43.0
e 43 101 62.0
e 43 41 28.0
e 45 290 1.0
e 45 43 84.0
e 46 245 15.0
e 46 45 1.0
e 47 282 1.0
e 47 46 3.0
e 48 200 5.0
e 48 47 10.0
e 49 59 37.0
e 49 164 24.0
e 49 48 1.0
e 50 230 79.0
e 50 223 49.0
e 50 292 22.0
e 50 61 83.0
e 50 229 36.0
e 50 49 40.0
e 52 144 9.0
e 52 50 7.0
e 53 150 1.0
e 53 52 4.0
e 54 57 2.0
e 54 53 5.0
e 55 214 5.0
e 55 54 5.0
e 59 77 16.0
e 59 100 24.0
e 60 231 3.0
e 60 55 1.0
e 62 73 1.0
e 62 60 2.0
e 63 118 2.0
e 63 62 2.0
e 64 179 11.0
e 64 63 8.0
e 65 148 85.0
e 65 184 67.0
e 65 119 36.0
e 65 193 46.0
e 65 257 38.0
e 65 64 57.0
e 66 127 2.0
e 66 65 53.0
e 67 159 1.0
e 67 66 1.0
e 68 69 9.0
e 70 71 1.0
e 70 67 2.0
e 75 76 5.0
e 75 70 12.0
e 78 87 41.0
e 78 301 44.0
e 78 182 34.0
e 78 75 20.0
e 79 185 23.0
e 79 203 14.0
e 79 78 1.0
e 80 98 1.0
e 80 79 4.0
e 82 99 34.0
e 83 243 5.0
e 83 80 1.0
e 84 291 49.0
e 84 85 4.0
e 84 86 48.0
e 84 83 11.0
e 86 88 10.0
e 89 90 3.0
e 89 84 18.0
e 91 120 1.0
e 91 89 1.0
e 93 97 6.0
e 93 91 5.0
e 94 187 1.0
e 94 93 2.0
e 95 241 1.0
e 95 94 3.0
e 96 99 35.0
e 102 103 2.0
e 102 95 2.0
e 104 105 1.0
e 104 102 5.0
e 106 189 1.0
e 106 104 1.0
e 107 108 13.0
e 107 106 5.0
e 108 289 24.0
e 110 128 7.0
e 110 107 11.0
e 111 170 1.0
e 111 110 10.0
e 113 115 5.0
e 113 111 5.0
e 117 219 2.0
e 117 113 1.0
e 121 122 3.0
e 121 117 5.0
e 123 125 20.0
e 123 188 14.0
e 123 121 10.0
e 129 130 94.0
e 129 140 59.0
e 129 146 8.0
e 129 201 2.0
e 129 131 32.0
e 129 123 64.0
e 133 157 5.0
e 133 129 89.0
e 134 136 78.0
e 134 220 17.0
e 134 287 51.0
e 134 148 3.0
e 134 137 79.0
e 138 207 12.0
e 138 133 1.0
e 139 141 3.0
e 139 138 1.0
e 142 165 5.0
e 142 139 5.0
e 143 145 5.0
e 143 142 1.0
e 148 149 81.0
e 148 248 72.0
e 148 255 75.0
e 151 152 1.0
e 151 143 1.0
e 153 154 6.0
e 153 151 3.0
e 155 202 3.0
e 155 153 5.0
e 156 158 12.0
e 156 155 5.0
e 160 173 2.0
e 160 156 1.0
e 161 275 5.0
e 161 160 1.0
e 162 166 2.0
e 162 161 1.0
e 167 168 4.0
e 167 162 8.0
e 171 172 18.0
e 171 174 40.0
e 171 299 39.0
e 171 167 48.0
e 175 176 1.0
e 175 171 20.0
e 177 178 3.0
e 177 175 9.0
e 180 262 4.0
e 180 181 77.0
e 180 177 21.0
e 181 191 72.0
e 181 294 68.0
e 181 302 30.0
e 181 183 34.0
e 183 192 27.0
e 183 194 13.0
e 195 218 3.0
e 195 180 8.0
e 196 197 23.0
e 196 195 1.0
e 197 261 12.0
e 204 205 50.0
e 205 264 11.0
e 205 207 66.0
e 205 208 31.0
e 205 209 48.0
e 207 210 29.0
e 207 317 14.0
e 207 213 19.0
e 215 216 2.0
e 215 196 1.0
e 217 293 7.0
e 217 221 18.0
e 217 215 8.0
e 222 224 4.0
e 222 217 14.0
e 225 303 1.0
e 225 222 1.0
e 226 227 30.0
e 226 225 1.0
e 227 276 79.0
e 227 253 43.0
e 227 272 17.0
e 227 232 46.0
e 233 234 4.0
e 233 226 9.0
e 235 265 11.0
e 235 233 1.0
e 236 237 2.0
e 236 235 6.0
e 238 240 5.0
e 238 236 1.0
e 242 245 21.0
e 247 249 48.0
e 247 250 73.0
e 247 315 96.0
e 247 251 43.0
e 247 252 32.0
e 247 238 25.0
e 250 251 47.0
e 250 254 61.0
e 250 256 57.0
e 250 259 64.0
e 251 259 9.0
e 251 260 17.0
e 251 304 29.0
e 263 266 1.0
e 263 247 79.0
e 268 269 12.0
e 268 263 3.0
e 270 271 3.0
e 270 268 2.0
e 273 277 6.0
e 273 270 5.0
e 277 278 12.0
e 279 295 57.0
e 279 280 89.0
e 279 283 76.0
e 279 284 23.0
e 279 286 67.0
e 279 273 50.0
e 288 291 18.0
e 296 297 2.0
e 296 279 7.0
e 298 304 41.0
e 298 305 16.0
e 304 307 75.0
e 304 308 42.0
e 304 309 94.0
e 311 312 93.0
e 311 296 5.0
e 312 313 62.0
e 312 318 31.0
e 312 319 10.0
